1825
1   1   0    34   0 11 26 17 25 33 34 18 2 0
1   2   0    0    0 0
1   3   0    51   0 12 20 28 36 6 1 4 0
1   4   0    44   0 7 8 16 23 15 0
1   5   0    48   0 9 10 3 13 5 0
2   1   0    47   0 46 54 79 71 63 55 48 0
2   2   0    42   0 62 70 78 76 68 60 65 38 73 57 49 42 0
2   3   0    51   0 53 59 67 75 40 32 29 35 27 19 37 21 24 74 66 58 50 0
2   4   0    59   0 56 64 80 72 77 61 69 51 31 22 30 14 39 43 0
2   5   0    56   0 47 45 41 52 44 0